Minimize
	value: tt

Subject to
tt + 1024 s_1_1 > 0.0
tt - t_1_1 - 1025.608851 s_1_1 + 1.608851 s_1_6 > -1023.202817
tt + 1024 s_2_1 > 0.0
tt - t_2_1 - 1026.001725 s_2_1 + 2.001725 s_2_6 > -1020.968680
tt + 1024 s_1_2 > 0.0
tt - t_1_2 - 1025.608851 s_1_2 + 1.608851 s_1_7 > -1023.035703
tt + 1024 s_2_2 > 0.0
tt - t_2_2 - 1026.001725 s_2_2 + 2.001725 s_2_7 > -1020.553909
tt + 1024 s_1_3 > 0.0
tt - t_1_3 - 1025.608851 s_1_3 + 1.608851 s_1_7 > -1022.774203
tt + 1024 s_2_3 > 0.0
tt - t_2_3 - 1026.001725 s_2_3 + 2.001725 s_2_7 > -1019.640124
tt + 1024 s_1_4 > 0.0
tt - t_1_4 - 1026.980083 s_1_4 + 2.980083 s_1_7 > -1023.425033
tt + 1024 s_2_4 > 0.0
tt - t_2_4 - 1027.684891 s_2_4 + 3.684891 s_2_7 > -1021.100164
tt + 1024 s_1_5 > 0.0
tt - t_1_5 - 1027.217703 s_1_5 + 3.217703 s_1_7 > -1023.056531
tt + 1024 s_2_5 > 0.0
tt - t_2_5 - 1028.003451 s_2_5 + 4.003451 s_2_7 > -1020.894103
tt + 1024 s_1_6 > 0.0
tt - t_1_6 - 1024.000000 s_1_6 > -1021.749556
tt + 1024 s_2_6 > 0.0
tt - t_2_6 - 1024.000000 s_2_6 > -1021.809756
tt + 1024 s_1_7 > 0.0
tt - t_1_7 - 1024.000000 s_1_7 > -1021.631700
tt + 1024 s_2_7 > 0.0
tt - t_2_7 - 1024.000000 s_2_7 > -1021.430497
tt + 1024 s_1_8 > 0.0
tt - t_1_8 - 1041.140400 s_1_8 + 17.140400 s_1_5 > -1023.823000
tt + 1024 s_2_8 > 0.0
tt - t_2_8 - 1045.039568 s_2_8 + 21.039568 s_2_5 > -1022.231222
s_1_1 + s_2_1  = 1
s_1_2 + s_2_2  = 1
s_1_3 + s_2_3  = 1
s_1_4 + s_2_4  = 1
s_1_5 + s_2_5  = 1
s_1_6 + s_2_6  = 1
s_1_7 + s_2_7  = 1
s_1_8 + s_2_8  = 1
s_1_1 + s_1_2 + 1024 r_1_1_2 >= 2
- s_1_1 - s_1_2 - 1024 r_1_1_2 >= -1025
t_1_1 - t_1_2 - 1024.000000 u_1_1_2 - 1.608851 s_1_2 + 1.608851 s_1_7 + 2048.000000 r_1_1_2 > -1023.035703
s_2_1 + s_2_2 + 1024 r_2_1_2 >= 2
- s_2_1 - s_2_2 - 1024 r_2_1_2 >= -1025
t_2_1 - t_2_2 - 1024.000000 u_2_1_2 - 2.001725 s_2_2 + 2.001725 s_2_7 + 2048.000000 r_2_1_2 > -1020.553909
s_1_1 + s_1_3 + 1024 r_1_1_3 >= 2
- s_1_1 - s_1_3 - 1024 r_1_1_3 >= -1025
t_1_1 - t_1_3 - 1024.000000 u_1_1_3 - 1.608851 s_1_3 + 1.608851 s_1_7 + 2048.000000 r_1_1_3 > -1022.774203
s_2_1 + s_2_3 + 1024 r_2_1_3 >= 2
- s_2_1 - s_2_3 - 1024 r_2_1_3 >= -1025
t_2_1 - t_2_3 - 1024.000000 u_2_1_3 - 2.001725 s_2_3 + 2.001725 s_2_7 + 2048.000000 r_2_1_3 > -1019.640124
s_1_1 + s_1_4 + 1024 r_1_1_4 >= 2
- s_1_1 - s_1_4 - 1024 r_1_1_4 >= -1025
t_1_1 - t_1_4 - 1024.000000 u_1_1_4 - 1.490042 s_1_4 + 1.490042 s_1_7 + 2048.000000 r_1_1_4 > -1023.425033
s_2_1 + s_2_4 + 1024 r_2_1_4 >= 2
- s_2_1 - s_2_4 - 1024 r_2_1_4 >= -1025
t_2_1 - t_2_4 - 1024.000000 u_2_1_4 - 1.842445 s_2_4 + 1.842445 s_2_7 + 2048.000000 r_2_1_4 > -1021.100164
s_1_1 + s_1_5 + 1024 r_1_1_5 >= 2
- s_1_1 - s_1_5 - 1024 r_1_1_5 >= -1025
t_1_1 - t_1_5 - 1024.000000 u_1_1_5 - 1.608851 s_1_5 + 1.608851 s_1_7 + 2048.000000 r_1_1_5 > -1023.056531
s_2_1 + s_2_5 + 1024 r_2_1_5 >= 2
- s_2_1 - s_2_5 - 1024 r_2_1_5 >= -1025
t_2_1 - t_2_5 - 1024.000000 u_2_1_5 - 2.001725 s_2_5 + 2.001725 s_2_7 + 2048.000000 r_2_1_5 > -1020.894103
t_1_1 - t_1_6 - 1024.000000 s_1_6 > -1021.749556
t_1_1 - t_2_6 - 1024.000000 s_2_6 > -1021.809756
t_2_1 - t_1_6 - 1024.000000 s_1_6 > -1021.749556
t_2_1 - t_2_6 - 1024.000000 s_2_6 > -1021.809756
s_1_1 + s_1_7 + 1024 r_1_1_7 >= 2
- s_1_1 - s_1_7 - 1024 r_1_1_7 >= -1025
t_1_1 - t_1_7 - 1024.000000 u_1_1_7 + 2048.000000 r_1_1_7 > -1021.631700
s_2_1 + s_2_7 + 1024 r_2_1_7 >= 2
- s_2_1 - s_2_7 - 1024 r_2_1_7 >= -1025
t_2_1 - t_2_7 - 1024.000000 u_2_1_7 + 2048.000000 r_2_1_7 > -1021.430497
t_1_8 - t_1_1 - 2.406035 s_1_1 + 1.608851 s_1_6 > 0.0
t_1_8 - t_2_1 - 5.033045 s_2_1 + 2.001725 s_2_6 > 0.0
t_2_8 - t_1_1 - 2.406035 s_1_1 + 1.608851 s_1_6 > 0.0
t_2_8 - t_2_1 - 5.033045 s_2_1 + 2.001725 s_2_6 > 0.0
s_1_2 + s_1_1 + 1024 r_1_1_2 >= 2
- s_1_2 - s_1_1 - 1024 r_1_1_2 >= -1025
t_1_2 - t_1_1 + 1024.000000 u_1_1_2 - 1.608851 s_1_1 + 1.608851 s_1_6 + 2048.000000 r_1_1_2 > 0.797183
s_2_2 + s_2_1 + 1024 r_2_1_2 >= 2
- s_2_2 - s_2_1 - 1024 r_2_1_2 >= -1025
t_2_2 - t_2_1 + 1024.000000 u_2_1_2 - 2.001725 s_2_1 + 2.001725 s_2_6 + 2048.000000 r_2_1_2 > 3.031320
s_1_2 + s_1_3 + 1024 r_1_2_3 >= 2
- s_1_2 - s_1_3 - 1024 r_1_2_3 >= -1025
t_1_2 - t_1_3 - 1024.000000 u_1_2_3 - 1.608851 s_1_3 + 1.608851 s_1_7 + 2048.000000 r_1_2_3 > -1022.774203
s_2_2 + s_2_3 + 1024 r_2_2_3 >= 2
- s_2_2 - s_2_3 - 1024 r_2_2_3 >= -1025
t_2_2 - t_2_3 - 1024.000000 u_2_2_3 - 2.001725 s_2_3 + 2.001725 s_2_7 + 2048.000000 r_2_2_3 > -1019.640124
s_1_2 + s_1_4 + 1024 r_1_2_4 >= 2
- s_1_2 - s_1_4 - 1024 r_1_2_4 >= -1025
t_1_2 - t_1_4 - 1024.000000 u_1_2_4 - 1.490042 s_1_4 + 1.490042 s_1_7 + 2048.000000 r_1_2_4 > -1023.425033
s_2_2 + s_2_4 + 1024 r_2_2_4 >= 2
- s_2_2 - s_2_4 - 1024 r_2_2_4 >= -1025
t_2_2 - t_2_4 - 1024.000000 u_2_2_4 - 1.842445 s_2_4 + 1.842445 s_2_7 + 2048.000000 r_2_2_4 > -1021.100164
s_1_2 + s_1_5 + 1024 r_1_2_5 >= 2
- s_1_2 - s_1_5 - 1024 r_1_2_5 >= -1025
t_1_2 - t_1_5 - 1024.000000 u_1_2_5 - 1.608851 s_1_5 + 1.608851 s_1_7 + 2048.000000 r_1_2_5 > -1023.056531
s_2_2 + s_2_5 + 1024 r_2_2_5 >= 2
- s_2_2 - s_2_5 - 1024 r_2_2_5 >= -1025
t_2_2 - t_2_5 - 1024.000000 u_2_2_5 - 2.001725 s_2_5 + 2.001725 s_2_7 + 2048.000000 r_2_2_5 > -1020.894103
s_1_2 + s_1_6 + 1024 r_1_2_6 >= 2
- s_1_2 - s_1_6 - 1024 r_1_2_6 >= -1025
t_1_2 - t_1_6 - 1024.000000 u_1_2_6 + 2048.000000 r_1_2_6 > -1021.749556
s_2_2 + s_2_6 + 1024 r_2_2_6 >= 2
- s_2_2 - s_2_6 - 1024 r_2_2_6 >= -1025
t_2_2 - t_2_6 - 1024.000000 u_2_2_6 + 2048.000000 r_2_2_6 > -1021.809756
t_1_2 - t_1_7 - 1024.000000 s_1_7 > -1021.631700
t_1_2 - t_2_7 - 1024.000000 s_2_7 > -1021.430497
t_2_2 - t_1_7 - 1024.000000 s_1_7 > -1021.631700
t_2_2 - t_2_7 - 1024.000000 s_2_7 > -1021.430497
t_1_8 - t_1_2 - 2.573149 s_1_2 + 1.608851 s_1_7 > 0.0
t_1_8 - t_2_2 - 5.447817 s_2_2 + 2.001725 s_2_7 > 0.0
t_2_8 - t_1_2 - 2.573149 s_1_2 + 1.608851 s_1_7 > 0.0
t_2_8 - t_2_2 - 5.447817 s_2_2 + 2.001725 s_2_7 > 0.0
s_1_3 + s_1_1 + 1024 r_1_1_3 >= 2
- s_1_3 - s_1_1 - 1024 r_1_1_3 >= -1025
t_1_3 - t_1_1 + 1024.000000 u_1_1_3 - 1.608851 s_1_1 + 1.608851 s_1_6 + 2048.000000 r_1_1_3 > 0.797183
s_2_3 + s_2_1 + 1024 r_2_1_3 >= 2
- s_2_3 - s_2_1 - 1024 r_2_1_3 >= -1025
t_2_3 - t_2_1 + 1024.000000 u_2_1_3 - 2.001725 s_2_1 + 2.001725 s_2_6 + 2048.000000 r_2_1_3 > 3.031320
s_1_3 + s_1_2 + 1024 r_1_2_3 >= 2
- s_1_3 - s_1_2 - 1024 r_1_2_3 >= -1025
t_1_3 - t_1_2 + 1024.000000 u_1_2_3 - 1.608851 s_1_2 + 1.608851 s_1_7 + 2048.000000 r_1_2_3 > 0.964297
s_2_3 + s_2_2 + 1024 r_2_2_3 >= 2
- s_2_3 - s_2_2 - 1024 r_2_2_3 >= -1025
t_2_3 - t_2_2 + 1024.000000 u_2_2_3 - 2.001725 s_2_2 + 2.001725 s_2_7 + 2048.000000 r_2_2_3 > 3.446091
t_1_4 - t_1_3 - 2.834649 s_1_3 + 1.608851 s_1_7 > 0.0
t_1_4 - t_2_3 - 6.361601 s_2_3 + 2.001725 s_2_7 > 0.0
t_2_4 - t_1_3 - 2.834649 s_1_3 + 1.608851 s_1_7 > 0.0
t_2_4 - t_2_3 - 6.361601 s_2_3 + 2.001725 s_2_7 > 0.0
s_1_3 + s_1_5 + 1024 r_1_3_5 >= 2
- s_1_3 - s_1_5 - 1024 r_1_3_5 >= -1025
t_1_3 - t_1_5 - 1024.000000 u_1_3_5 - 1.608851 s_1_5 + 1.608851 s_1_7 + 2048.000000 r_1_3_5 > -1023.056531
s_2_3 + s_2_5 + 1024 r_2_3_5 >= 2
- s_2_3 - s_2_5 - 1024 r_2_3_5 >= -1025
t_2_3 - t_2_5 - 1024.000000 u_2_3_5 - 2.001725 s_2_5 + 2.001725 s_2_7 + 2048.000000 r_2_3_5 > -1020.894103
s_1_3 + s_1_6 + 1024 r_1_3_6 >= 2
- s_1_3 - s_1_6 - 1024 r_1_3_6 >= -1025
t_1_3 - t_1_6 - 1024.000000 u_1_3_6 + 2048.000000 r_1_3_6 > -1021.749556
s_2_3 + s_2_6 + 1024 r_2_3_6 >= 2
- s_2_3 - s_2_6 - 1024 r_2_3_6 >= -1025
t_2_3 - t_2_6 - 1024.000000 u_2_3_6 + 2048.000000 r_2_3_6 > -1021.809756
t_1_3 - t_1_7 - 1024.000000 s_1_7 > -1021.631700
t_1_3 - t_2_7 - 1024.000000 s_2_7 > -1021.430497
t_2_3 - t_1_7 - 1024.000000 s_1_7 > -1021.631700
t_2_3 - t_2_7 - 1024.000000 s_2_7 > -1021.430497
t_1_8 - t_1_3 - 2.834649 s_1_3 + 1.608851 s_1_7 > 0.0
t_1_8 - t_2_3 - 6.361601 s_2_3 + 2.001725 s_2_7 > 0.0
t_2_8 - t_1_3 - 2.834649 s_1_3 + 1.608851 s_1_7 > 0.0
t_2_8 - t_2_3 - 6.361601 s_2_3 + 2.001725 s_2_7 > 0.0
s_1_4 + s_1_1 + 1024 r_1_1_4 >= 2
- s_1_4 - s_1_1 - 1024 r_1_1_4 >= -1025
t_1_4 - t_1_1 + 1024.000000 u_1_1_4 - 1.608851 s_1_1 + 1.608851 s_1_6 + 2048.000000 r_1_1_4 > 0.797183
s_2_4 + s_2_1 + 1024 r_2_1_4 >= 2
- s_2_4 - s_2_1 - 1024 r_2_1_4 >= -1025
t_2_4 - t_2_1 + 1024.000000 u_2_1_4 - 2.001725 s_2_1 + 2.001725 s_2_6 + 2048.000000 r_2_1_4 > 3.031320
s_1_4 + s_1_2 + 1024 r_1_2_4 >= 2
- s_1_4 - s_1_2 - 1024 r_1_2_4 >= -1025
t_1_4 - t_1_2 + 1024.000000 u_1_2_4 - 1.608851 s_1_2 + 1.608851 s_1_7 + 2048.000000 r_1_2_4 > 0.964297
s_2_4 + s_2_2 + 1024 r_2_2_4 >= 2
- s_2_4 - s_2_2 - 1024 r_2_2_4 >= -1025
t_2_4 - t_2_2 + 1024.000000 u_2_2_4 - 2.001725 s_2_2 + 2.001725 s_2_7 + 2048.000000 r_2_2_4 > 3.446091
s_1_4 + s_1_5 + 1024 r_1_4_5 >= 2
- s_1_4 - s_1_5 - 1024 r_1_4_5 >= -1025
t_1_4 - t_1_5 - 1024.000000 u_1_4_5 - 1.608851 s_1_5 + 1.608851 s_1_7 + 2048.000000 r_1_4_5 > -1023.056531
s_2_4 + s_2_5 + 1024 r_2_4_5 >= 2
- s_2_4 - s_2_5 - 1024 r_2_4_5 >= -1025
t_2_4 - t_2_5 - 1024.000000 u_2_4_5 - 2.001725 s_2_5 + 2.001725 s_2_7 + 2048.000000 r_2_4_5 > -1020.894103
s_1_4 + s_1_6 + 1024 r_1_4_6 >= 2
- s_1_4 - s_1_6 - 1024 r_1_4_6 >= -1025
t_1_4 - t_1_6 - 1024.000000 u_1_4_6 + 2048.000000 r_1_4_6 > -1021.749556
s_2_4 + s_2_6 + 1024 r_2_4_6 >= 2
- s_2_4 - s_2_6 - 1024 r_2_4_6 >= -1025
t_2_4 - t_2_6 - 1024.000000 u_2_4_6 + 2048.000000 r_2_4_6 > -1021.809756
t_1_4 - t_1_7 - 1024.000000 s_1_7 > -1021.631700
t_1_4 - t_2_7 - 1024.000000 s_2_7 > -1021.430497
t_2_4 - t_1_7 - 1024.000000 s_1_7 > -1021.631700
t_2_4 - t_2_7 - 1024.000000 s_2_7 > -1021.430497
t_1_8 - t_1_4 - 2.065008 s_1_4 + 1.490042 s_1_7 > 0.0
t_1_8 - t_2_4 - 4.742282 s_2_4 + 1.842445 s_2_7 > 0.0
t_2_8 - t_1_4 - 2.065008 s_1_4 + 1.490042 s_1_7 > 0.0
t_2_8 - t_2_4 - 4.742282 s_2_4 + 1.842445 s_2_7 > 0.0
s_1_5 + s_1_1 + 1024 r_1_1_5 >= 2
- s_1_5 - s_1_1 - 1024 r_1_1_5 >= -1025
t_1_5 - t_1_1 + 1024.000000 u_1_1_5 - 1.608851 s_1_1 + 1.608851 s_1_6 + 2048.000000 r_1_1_5 > 0.797183
s_2_5 + s_2_1 + 1024 r_2_1_5 >= 2
- s_2_5 - s_2_1 - 1024 r_2_1_5 >= -1025
t_2_5 - t_2_1 + 1024.000000 u_2_1_5 - 2.001725 s_2_1 + 2.001725 s_2_6 + 2048.000000 r_2_1_5 > 3.031320
s_1_5 + s_1_2 + 1024 r_1_2_5 >= 2
- s_1_5 - s_1_2 - 1024 r_1_2_5 >= -1025
t_1_5 - t_1_2 + 1024.000000 u_1_2_5 - 1.608851 s_1_2 + 1.608851 s_1_7 + 2048.000000 r_1_2_5 > 0.964297
s_2_5 + s_2_2 + 1024 r_2_2_5 >= 2
- s_2_5 - s_2_2 - 1024 r_2_2_5 >= -1025
t_2_5 - t_2_2 + 1024.000000 u_2_2_5 - 2.001725 s_2_2 + 2.001725 s_2_7 + 2048.000000 r_2_2_5 > 3.446091
s_1_5 + s_1_3 + 1024 r_1_3_5 >= 2
- s_1_5 - s_1_3 - 1024 r_1_3_5 >= -1025
t_1_5 - t_1_3 + 1024.000000 u_1_3_5 - 1.608851 s_1_3 + 1.608851 s_1_7 + 2048.000000 r_1_3_5 > 1.225797
s_2_5 + s_2_3 + 1024 r_2_3_5 >= 2
- s_2_5 - s_2_3 - 1024 r_2_3_5 >= -1025
t_2_5 - t_2_3 + 1024.000000 u_2_3_5 - 2.001725 s_2_3 + 2.001725 s_2_7 + 2048.000000 r_2_3_5 > 4.359876
s_1_5 + s_1_4 + 1024 r_1_4_5 >= 2
- s_1_5 - s_1_4 - 1024 r_1_4_5 >= -1025
t_1_5 - t_1_4 + 1024.000000 u_1_4_5 - 1.490042 s_1_4 + 1.490042 s_1_7 + 2048.000000 r_1_4_5 > 0.574967
s_2_5 + s_2_4 + 1024 r_2_4_5 >= 2
- s_2_5 - s_2_4 - 1024 r_2_4_5 >= -1025
t_2_5 - t_2_4 + 1024.000000 u_2_4_5 - 1.842445 s_2_4 + 1.842445 s_2_7 + 2048.000000 r_2_4_5 > 2.899836
t_1_5 - t_1_6 - 1024.000000 s_1_6 > -1021.749556
t_1_5 - t_2_6 - 1024.000000 s_2_6 > -1021.809756
t_2_5 - t_1_6 - 1024.000000 s_1_6 > -1021.749556
t_2_5 - t_2_6 - 1024.000000 s_2_6 > -1021.809756
t_1_5 - t_1_7 - 1024.000000 s_1_7 > -1021.631700
t_1_5 - t_2_7 - 1024.000000 s_2_7 > -1021.430497
t_2_5 - t_1_7 - 1024.000000 s_1_7 > -1021.631700
t_2_5 - t_2_7 - 1024.000000 s_2_7 > -1021.430497
t_1_8 - t_1_5 - 2.552321 s_1_5 + 1.608851 s_1_7 > 0.0
t_1_8 - t_2_5 - 5.107622 s_2_5 + 2.001725 s_2_7 > 0.0
t_2_8 - t_1_5 - 2.552321 s_1_5 + 1.608851 s_1_7 > 0.0
t_2_8 - t_2_5 - 5.107622 s_2_5 + 2.001725 s_2_7 > 0.0
s_1_6 + s_1_2 + 1024 r_1_2_6 >= 2
- s_1_6 - s_1_2 - 1024 r_1_2_6 >= -1025
t_1_6 - t_1_2 + 1024.000000 u_1_2_6 - 1.608851 s_1_2 + 1.608851 s_1_7 + 2048.000000 r_1_2_6 > 0.964297
s_2_6 + s_2_2 + 1024 r_2_2_6 >= 2
- s_2_6 - s_2_2 - 1024 r_2_2_6 >= -1025
t_2_6 - t_2_2 + 1024.000000 u_2_2_6 - 2.001725 s_2_2 + 2.001725 s_2_7 + 2048.000000 r_2_2_6 > 3.446091
s_1_6 + s_1_3 + 1024 r_1_3_6 >= 2
- s_1_6 - s_1_3 - 1024 r_1_3_6 >= -1025
t_1_6 - t_1_3 + 1024.000000 u_1_3_6 - 1.608851 s_1_3 + 1.608851 s_1_7 + 2048.000000 r_1_3_6 > 1.225797
s_2_6 + s_2_3 + 1024 r_2_3_6 >= 2
- s_2_6 - s_2_3 - 1024 r_2_3_6 >= -1025
t_2_6 - t_2_3 + 1024.000000 u_2_3_6 - 2.001725 s_2_3 + 2.001725 s_2_7 + 2048.000000 r_2_3_6 > 4.359876
s_1_6 + s_1_4 + 1024 r_1_4_6 >= 2
- s_1_6 - s_1_4 - 1024 r_1_4_6 >= -1025
t_1_6 - t_1_4 + 1024.000000 u_1_4_6 - 1.490042 s_1_4 + 1.490042 s_1_7 + 2048.000000 r_1_4_6 > 0.574967
s_2_6 + s_2_4 + 1024 r_2_4_6 >= 2
- s_2_6 - s_2_4 - 1024 r_2_4_6 >= -1025
t_2_6 - t_2_4 + 1024.000000 u_2_4_6 - 1.842445 s_2_4 + 1.842445 s_2_7 + 2048.000000 r_2_4_6 > 2.899836
s_1_6 + s_1_7 + 1024 r_1_6_7 >= 2
- s_1_6 - s_1_7 - 1024 r_1_6_7 >= -1025
t_1_6 - t_1_7 - 1024.000000 u_1_6_7 + 2048.000000 r_1_6_7 > -1021.631700
s_2_6 + s_2_7 + 1024 r_2_6_7 >= 2
- s_2_6 - s_2_7 - 1024 r_2_6_7 >= -1025
t_2_6 - t_2_7 - 1024.000000 u_2_6_7 + 2048.000000 r_2_6_7 > -1021.430497
s_1_7 + s_1_1 + 1024 r_1_1_7 >= 2
- s_1_7 - s_1_1 - 1024 r_1_1_7 >= -1025
t_1_7 - t_1_1 + 1024.000000 u_1_1_7 - 1.608851 s_1_1 + 1.608851 s_1_6 + 2048.000000 r_1_1_7 > 0.797183
s_2_7 + s_2_1 + 1024 r_2_1_7 >= 2
- s_2_7 - s_2_1 - 1024 r_2_1_7 >= -1025
t_2_7 - t_2_1 + 1024.000000 u_2_1_7 - 2.001725 s_2_1 + 2.001725 s_2_6 + 2048.000000 r_2_1_7 > 3.031320
s_1_7 + s_1_6 + 1024 r_1_6_7 >= 2
- s_1_7 - s_1_6 - 1024 r_1_6_7 >= -1025
t_1_7 - t_1_6 + 1024.000000 u_1_6_7 + 2048.000000 r_1_6_7 > 2.250444
s_2_7 + s_2_6 + 1024 r_2_6_7 >= 2
- s_2_7 - s_2_6 - 1024 r_2_6_7 >= -1025
t_2_7 - t_2_6 + 1024.000000 u_2_6_7 + 2048.000000 r_2_6_7 > 2.190244
Binary
s_1_1
s_2_1
s_1_2
s_2_2
s_1_3
s_2_3
s_1_4
s_2_4
s_1_5
s_2_5
s_1_6
s_2_6
s_1_7
s_2_7
s_1_8
s_2_8
u_1_1_2
r_1_1_2
u_2_1_2
r_2_1_2
u_1_1_3
r_1_1_3
u_2_1_3
r_2_1_3
u_1_1_4
r_1_1_4
u_2_1_4
r_2_1_4
u_1_1_5
r_1_1_5
u_2_1_5
r_2_1_5
u_1_1_7
r_1_1_7
u_2_1_7
r_2_1_7
u_1_2_3
r_1_2_3
u_2_2_3
r_2_2_3
u_1_2_4
r_1_2_4
u_2_2_4
r_2_2_4
u_1_2_5
r_1_2_5
u_2_2_5
r_2_2_5
u_1_2_6
r_1_2_6
u_2_2_6
r_2_2_6
u_1_3_5
r_1_3_5
u_2_3_5
r_2_3_5
u_1_3_6
r_1_3_6
u_2_3_6
r_2_3_6
u_1_4_5
r_1_4_5
u_2_4_5
r_2_4_5
u_1_4_6
r_1_4_6
u_2_4_6
r_2_4_6
u_1_6_7
r_1_6_7
u_2_6_7
r_2_6_7

End
